43
289

[0.57 3.03 0.66 1.2 1.63 4.28 3.32 2.7 0.14 3.66 1.97 4.0 1.27 0.28 4.32 1.1 2.02 1.58 0.38 4.2 4.23 4.84 1.92 4.76 2.22 3.34 0.41 4.47 1.48 1.31 0.03 2.71 2.37 3.17 4.87 4.53 4.54 2.62 0.52 0.9 4.75 2.05 4.31 3.35 3.13 1.37 4.47 1.03 2.02 4.95 3.67 2.22 2.79 2.05 3.62 1.99 3.34 3.51]

[58 35 35 51 73 49 30 85 39 82 92 58 4 58 90 76 8 95 57 67 18 96 70 28 55 24 95 11 95 24 3 77 68 51 23 63 96 27 29 62 100 6 42 88 27 25 21 85 83 58 19 71 33 69 78 80 68 71]
